; benchmark generated from python API
(set-info :status unknown)
(declare-fun C () Real)
(declare-fun S_4 () Real)
(declare-fun S_5 () Real)
(declare-fun S_0 () Real)
(declare-fun S_3 () Real)
(declare-fun S_1 () Real)
(declare-fun S_2 () Real)
(declare-fun L_0 () Real)
(declare-fun A_0 () Real)
(declare-fun B () Real)
(declare-fun A_2 () Real)
(declare-fun A_5 () Real)
(declare-fun A_4 () Real)
(declare-fun L_1 () Real)
(declare-fun A_1 () Real)
(declare-fun A_3 () Real)
(assert
 (let (($x39 (>= L_0 0.0)))
 (let (($x759 (>= C 5.0)))
 (let ((?x1169 (* (- 2.0) C)))
 (let ((?x274 (* (- 1.0) B)))
 (let ((?x454 (* (- 1.0) A_5)))
 (let ((?x1278 (* (- 1.0) A_0)))
 (let (($x10129 (<= (+ S_5 ?x454 A_2 ?x274 (* (- 1.0) C) (* (- 1.0) S_2)) 0.0)))
 (let (($x8765 (<= (+ S_5 ?x454 A_2 ?x274 (* (- 3.0) C) (* (- 1.0) S_0)) 0.0)))
 (let (($x1227 (<= (+ (* (- 1.0) S_5) (* (- 1.0) L_1) A_4) 0.0)))
 (let ((?x283 (* (- 1.0) L_1)))
 (let ((?x938 (+ L_0 ?x283)))
 (let (($x603 (<= 0.0 ?x938)))
 (let (($x4457 (<= (+ S_5 L_1 (* (- 1.0) A_1) ?x454 A_2 (* (- 1.0) C)) 0.0)))
 (let (($x1645 (<= (+ (* (- 1.0) S_5) ?x283 A_1 (* 3.0 C) ?x274) 0.0)))
 (let (($x56 (= L_1 L_0)))
 (let (($x521 (or $x56 (<= (+ L_1 (* (- 1.0) A_1) (* (- 1.0) C) S_2 B) 0.0))))
 (let (($x22287 (or $x56 (<= (+ S_4 L_1 (* (- 1.0) A_1) (* (- 3.0) C) B) 0.0))))
 (let (($x21992 (or $x56 (<= (+ S_5 L_1 (* (- 1.0) A_1) (* (- 4.0) C) B) 0.0))))
 (let (($x140 (>= S_5 S_4)))
 (let (($x143 (>= A_2 A_1)))
 (let (($x128 (>= S_1 S_0)))
 (let (($x131 (>= S_2 S_1)))
 (let (($x134 (>= S_3 S_2)))
 (let (($x137 (>= S_4 S_3)))
 (let (($x144 (>= A_3 A_2)))
 (let (($x145 (>= A_4 A_3)))
 (let (($x146 (>= A_5 A_4)))
 (and (<= (+ A_0 (* (- 1.0) L_0)) S_4) (not (<= (+ A_1 ?x283) S_4)) $x146 $x145 $x144 $x137 $x134 $x131 $x128 $x143 $x140 (or (not $x603) $x56) (<= (+ ?x283 A_1 (* (- 1.0) S_2) ?x274) 0.0) (<= (+ ?x1278 L_0 ?x283 A_1 (* (- 1.0) C) ?x274) 0.0) (<= (+ ?x283 A_1 ?x1169 (* (- 1.0) S_0) ?x274) 0.0) (<= (+ ?x283 A_1 (* (- 1.0) C) (* (- 1.0) S_1) ?x274) 0.0) (<= (+ ?x283 A_1 C (* (- 1.0) S_3) ?x274) 0.0) (<= (+ (* (- 1.0) S_4) ?x283 A_1 (* 2.0 C) ?x274) 0.0) (or $x56 (<= (+ L_1 (* (- 1.0) A_1) C S_0 B) 0.0)) (or $x56 (<= (+ L_1 (* (- 1.0) A_1) S_1 B) 0.0)) $x21992 $x22287 (or $x1645 (<= (+ A_3 (* (- 1.0) A_2) (* (- 1.0) C)) 0.0)) $x521 (or (<= (+ (* (- 1.0) A_1) A_2 (* (- 1.0) C)) 0.0) $x1645) (<= (+ ?x1278 L_0 S_4 (* (- 4.0) C)) 0.0) (<= (+ S_4 (* (- 4.0) C) (* (- 1.0) S_1)) 0.0) (<= (+ S_5 ?x1278 L_0 (* (- 5.0) C)) 0.0) (<= (+ S_5 (* (- 5.0) C) (* (- 1.0) S_1)) 0.0) (<= (+ S_4 (* (- 3.0) C) (* (- 1.0) S_2)) 0.0) (<= (+ S_5 (* (- 4.0) C) (* (- 1.0) S_2)) 0.0) (or $x1227 $x1645) (or $x603 $x4457) (or $x603 (<= (+ L_1 (* (- 1.0) A_1) ?x1169 S_3 B) 0.0)) (<= (+ ?x1278 L_0 (* (- 3.0) C) S_3) 0.0) (<= (+ (* (- 4.0) C) S_3 (* (- 1.0) S_0)) 0.0) (<= (+ ?x1169 S_3 (* (- 1.0) S_2)) 0.0) (<= (+ S_5 L_1 (* (- 1.0) A_4) (* (- 1.0) C)) 0.0) (<= (+ S_5 L_1 ?x454) 0.0) (<= (+ S_5 (* (- 6.0) C) (* (- 1.0) S_0)) 0.0) (<= (+ S_5 (* (- 3.0) C) (* (- 1.0) S_3)) 0.0) (<= (+ S_4 ?x1169 (* (- 1.0) S_3)) 0.0) (<= (+ S_4 (* (- 5.0) C) (* (- 1.0) S_0)) 0.0) (<= (+ (* (- 3.0) C) S_3 (* (- 1.0) S_1)) 0.0) (<= (+ (* (- 1.0) S_4) (* 2.0 C) S_1) 0.0) (<= (+ (* (- 1.0) S_4) (* 3.0 C) S_0) 0.0) (<= (+ (* (- 1.0) S_4) C S_2) 0.0) (or $x1227 (<= (+ (* (- 1.0) S_5) C S_3) 0.0)) (or $x1227 (<= (+ (* (- 1.0) S_5) (* 4.0 C) S_0) 0.0)) (or $x1227 (<= (+ (* (- 1.0) S_5) (* 3.0 C) S_1) 0.0)) (or $x1227 (<= (+ (* (- 1.0) S_5) (* 2.0 C) S_2) 0.0)) $x8765 $x10129 (<= (+ S_5 ?x454 A_2 ?x274 (* (- 1.0) S_3)) 0.0) (<= (+ S_5 ?x454 A_2 ?x274 ?x1169 (* (- 1.0) S_1)) 0.0) (<= (+ S_5 (* (- 1.0) S_4) ?x454 A_2 ?x274 C) 0.0) (<= (+ S_5 ?x1278 L_0 ?x454 A_2 ?x274 ?x1169) 0.0) $x759 $x39 (<= (+ (* (- 3.0) C) S_2 (* (- 1.0) S_0)) 0.0) (<= (+ ?x1278 L_0 ?x1169 S_2) 0.0) (<= (+ ?x1169 S_2 (* (- 1.0) S_1)) 0.0) (<= (+ ?x1278 L_0 (* (- 1.0) C) S_1) 0.0) (<= (+ ?x1278 L_0 S_0) 0.0) (<= (+ C (* (- 1.0) S_2) S_0) 0.0) (<= (+ ?x1169 S_1 (* (- 1.0) S_0)) 0.0) (<= (+ C (* (- 1.0) S_3) S_1) 0.0) (<= (+ (* 2.0 C) (* (- 1.0) S_3) S_0) 0.0) (<= (+ S_5 (* (- 1.0) S_4) ?x1169) 0.0))))))))))))))))))))))))))))))
(check-sat)
